SCIP Status        : solving was interrupted [time limit reached]
Total Time         :    3600.01
  solving          :    3600.00
  presolving       :       0.13 (included in solving)
  reading          :       0.01
  copying          :       0.07 (8 #copies) (minimal 0.00, maximal 0.01, average 0.01)
Original Problem   :
  Problem name     : benchmark/block2_45_10_9_13.design
  Variables        : 1108 (45 binary, 0 integer, 0 implicit integer, 1063 continuous)
  Constraints      : 1524 initial, 1524 maximal
  Objective        : minimize, 1 non-zeros (abs.min = 1, abs.max = 1)
Presolved Problem  :
  Problem name     : t_benchmark/block2_45_10_9_13.design
  Variables        : 1605 (45 binary, 0 integer, 0 implicit integer, 1560 continuous)
  Constraints      : 1524 initial, 1530 maximal
  Objective        : minimize, 1 non-zeros (abs.min = 1, abs.max = 1)
  Nonzeros         : 5168 constraint, 0 clique table
Presolvers         :   ExecTime  SetupTime  Calls  FixedVars   AggrVars   ChgTypes  ChgBounds   AddHoles    DelCons    AddCons   ChgSides   ChgCoefs
  boundshift       :       0.00       0.00      0          0          0          0          0          0          0          0          0          0
  convertinttobin  :       0.00       0.00      0          0          0          0          0          0          0          0          0          0
  domcol           :       0.00       0.00      1          0          0          0          0          0          0          0          0          0
  dualagg          :       0.00       0.00      0          0          0          0          0          0          0          0          0          0
  dualcomp         :       0.00       0.00      1          0          0          0          0          0          0          0          0          0
  dualinfer        :       0.00       0.00      0          0          0          0          0          0          0          0          0          0
  dualsparsify     :       0.00       0.00      1          0          0          0          0          0          0          0          0          0
  gateextraction   :       0.00       0.00      0          0          0          0          0          0          0          0          0          0
  implics          :       0.00       0.00      1          0          0          0          0          0          0          0          0          0
  inttobinary      :       0.00       0.00      0          0          0          0          0          0          0          0          0          0
  qpkktref         :       0.00       0.00      0          0          0          0          0          0          0          0          0          0
  redvub           :       0.00       0.00      0          0          0          0          0          0          0          0          0          0
  sparsify         :       0.00       0.00      1          0          0          0          0          0          0          0          0          0
  stuffing         :       0.00       0.00      0          0          0          0          0          0          0          0          0          0
  trivial          :       0.00       0.00      2         36          0          0          0          0          0          0          0          0
  tworowbnd        :       0.00       0.00      0          0          0          0          0          0          0          0          0          0
  dualfix          :       0.01       0.00      2         36          0          0          0          0          0          0          0          0
  genvbounds       :       0.00       0.00      0          0          0          0          0          0          0          0          0          0
  probing          :       0.01       0.00      1          0          0          0          0          0          0          0          0          0
  pseudoobj        :       0.00       0.00      0          0          0          0          0          0          0          0          0          0
  symmetry         :       0.01       0.00      1          0          0          0          0          0          0          0          0          0
  vbounds          :       0.00       0.00      0          0          0          0          0          0          0          0          0          0
  linear           :       0.00       0.00      3          0          0          0          0          0          0          0          0          0
  nonlinear        :       0.10       0.01      4          0          0          0         81          0          0          0          0          0
  benders          :       0.00       0.00      0          0          0          0          0          0          0          0          0          0
  components       :       0.00       0.00      1          0          0          0          0          0          0          0          0          0
  root node        :          -          -      -          0          -          -       1788          -          -          -          -          -
Constraints        :     Number  MaxNumber  #Separate #Propagate    #EnfoLP    #EnfoRelax  #EnfoPS    #Check   #ResProp    Cutoffs    DomReds       Cuts    Applied      Conss   Children
  benderslp        :          0          0          0          0      19352          0          0      15524          0          0          0          0          0          0          0
  integral         :          0          0          0          0      19352          0          0      15524          0          0       2852          0          0          0      38426
  linear           :       1037+      1043         77     561120          0          0          0      15518          0         57      18316          7          7          0          0
  nonlinear        :        487        487     148406     561063          0          0          0      14368          0         56     767346    4578382    4578382          0          0
  benders          :          0          0          0          0          0          0          0          7          0          0          0          0          0          0          0
  countsols        :          0          0          0          0          0          0          0          7          0          0          0          0          0          0          0
  components       :          0          0          0          0          0          0          0          0          0          0          0          0          0          0          0
Constraint Timings :  TotalTime  SetupTime   Separate  Propagate     EnfoLP     EnfoPS     EnfoRelax   Check    ResProp    SB-Prop
  benderslp        :       0.04       0.00       0.00       0.00       0.03       0.00       0.00       0.01       0.00       0.00
  integral         :      16.85       0.00       0.00       0.00      16.85       0.00       0.00       0.00       0.00       0.00
  linear           :      10.64       0.00       0.00      10.47       0.00       0.00       0.00       0.17       0.00       0.00
  nonlinear        :     247.84       0.01     167.07      73.74       0.00       0.00       0.00       6.77       0.00       0.25
  benders          :       0.00       0.00       0.00       0.00       0.00       0.00       0.00       0.00       0.00       0.00
  countsols        :       0.00       0.00       0.00       0.00       0.00       0.00       0.00       0.00       0.00       0.00
  components       :       0.04       0.00       0.00       0.04       0.00       0.00       0.00       0.00       0.00       0.00
Propagators        : #Propagate   #ResProp    Cutoffs    DomReds
  dualfix          :          4          0          0          0
  genvbounds       :          0          0          0          0
  nlobbt           :          0          0          0          0
  obbt             :          0          0          0          0
  probing          :          0          0          0          0
  pseudoobj        :      59672          0          0         17
  redcost          :     187116          0          0          0
  rootredcost      :          5          0          0       1283
  symmetry         :          0          0          0          0
  vbounds          :     127403          0          0          0
Propagator Timings :  TotalTime  SetupTime   Presolve  Propagate    ResProp    SB-Prop
  dualfix          :       0.01       0.00       0.01       0.00       0.00       0.00
  genvbounds       :       0.29       0.00       0.00       0.29       0.00       0.00
  nlobbt           :       0.00       0.00       0.00       0.00       0.00       0.00
  obbt             :       0.00       0.00       0.00       0.00       0.00       0.00
  probing          :       0.01       0.00       0.01       0.00       0.00       0.00
  pseudoobj        :       0.51       0.00       0.00       0.50       0.00       0.01
  redcost          :       2.75       0.00       0.00       2.75       0.00       0.00
  rootredcost      :       0.28       0.00       0.00       0.28       0.00       0.00
  symmetry         :       0.18       0.00       0.01       0.17       0.00       0.00
  vbounds          :       0.32       0.00       0.00       0.32       0.00       0.00
Conflict Analysis  :       Time      Calls    Success    DomReds  Conflicts   Literals    Reconvs ReconvLits   Dualrays   Nonzeros   LP Iters   (pool size: [--,--])
  propagation      :       0.00         23          0          -          0        0.0          0        0.0          -          -          -
  infeasible LP    :       0.00          0          0          -          0        0.0          0        0.0        145      161.4          0
  bound exceed. LP :       0.61        333        145          -          0        0.0          0        0.0          0        0.0       3399
  strong branching :       0.00          0          0          -          0        0.0          0        0.0          -          -          0
  pseudo solution  :       0.00          0          0          -          0        0.0          0        0.0          -          -          -
  applied globally :       0.00          -          -          0          0        0.0          -          -        145          -          -
  applied locally  :          -          -          -          0          0        0.0          -          -          0          -          -
Separators         :   ExecTime  SetupTime      Calls  RootCalls    Cutoffs    DomReds  FoundCuts ViaPoolAdd  DirectAdd    Applied ViaPoolApp  DirectApp      Conss
  cut pool         :       0.02          -       2027          0          -          -         24         44          -          -          -          -          -    (maximal pool size:          5)
  aggregation      :       8.80       0.00       6515         77          0          0          0          0          0          0          0          0          0
  > cmir           :          -          -          -          -          -          -          -          0          0          0          0          0          -
  > flowcover      :          -          -          -          -          -          -          -          0          0          0          0          0          -
  > knapsackcover  :          -          -          -          -          -          -          -          0          0          0          0          0          -
  cgmip            :       0.00       0.00          0          0          0          0          0          0          0          0          0          0          0
  clique           :       0.00       0.00          1          1          0          0          0          0          0          0          0          0          0
  closecuts        :       0.00       0.00          0          0          0          0          0          0          0          0          0          0          0
  convexproj       :       0.00       0.00          0          0          0          0          0          0          0          0          0          0          0
  disjunctive      :       0.00       0.00          0          0          0          0          0          0          0          0          0          0          0
  eccuts           :       0.00       0.00          0          0          0          0          0          0          0          0          0          0          0
  gauge            :       0.00       0.00          0          0          0          0          0          0          0          0          0          0          0
  gomory           :       8.94       0.00       3703         10          0          0         24         44          0         44         44          0          0
  > gomorymi       :          -          -          -          -          -          -          -         44          0         44         44          0          -
  > strongcg       :          -          -          -          -          -          -          -          0          0          0          0          0          -
  impliedbounds    :       0.28       0.00       6515         77          0          0          0          0          0          0          0          0          0
  interminor       :       0.00       0.00          0          0          0          0          0          0          0          0          0          0          0
  intobj           :       0.00       0.00          0          0          0          0          0          0          0          0          0          0          0
  mcf              :       0.00       0.00          3          3          0          0          0          0          0          0          0          0          0
  minor            :       0.04       0.00          0          0          0          0          0          0          0          0          0          0          0
  mixing           :       0.22       0.00       6515         77          0          0          0          0          0          0          0          0          0
  oddcycle         :       0.00       0.00          0          0          0          0          0          0          0          0          0          0          0
  rapidlearning    :       0.00       0.00          0          0          0          0          0          0          0          0          0          0          0
  rlt              :       0.00       0.00         10         10          0          0          0          0          0          0          0          0          0
  zerohalf         :       1.21       0.00       3713         20          0          0          0          0          0          0          0          0          0
Cutselectors       :   ExecTime  SetupTime      Calls  RootCalls   Selected     Forced   Filtered  RootSelec   RootForc   RootFilt 
  hybrid           :       3.74       0.00     148406         77    4578433          0          0       4331          0          0
Pricers            :   ExecTime  SetupTime      Calls       Vars
  problem variables:       0.00          -          0          0
Branching Rules    :   ExecTime  SetupTime   BranchLP  BranchExt   BranchPS    Cutoffs    DomReds       Cuts      Conss   Children
  allfullstrong    :       0.00       0.00          0          0          0          0          0          0          0          0
  cloud            :       0.00       0.00          0          0          0          0          0          0          0          0
  distribution     :       0.00       0.00          0          0          0          0          0          0          0          0
  fullstrong       :       0.00       0.00          0          0          0          0          0          0          0          0
  inference        :       0.00       0.00          0          0          0          0          0          0          0          0
  leastinf         :       0.00       0.00          0          0          0          0          0          0          0          0
  lookahead        :       0.00       0.00          0          0          0          0          0          0          0          0
  mostinf          :       0.00       0.00          0          0          0          0          0          0          0          0
  multaggr         :       0.00       0.00          0          0          0          0          0          0          0          0
  nodereopt        :       0.00       0.00          0          0          0          0          0          0          0          0
  pscost           :       0.00       0.00          0          0          0          0          0          0          0          0
  random           :       0.00       0.00          0          0          0          0          0          0          0          0
  relpscost        :      16.84       0.00      19352          0          0          0       2852          0          0      38426
  vanillafullstrong:       0.00       0.00          0          0          0          0          0          0          0          0
Primal Heuristics  :   ExecTime  SetupTime      Calls      Found       Best
  LP solutions     :       0.00          -          -          0          0
  relax solutions  :       0.00          -          -          0          0
  pseudo solutions :       0.00          -          -          0          0
  strong branching :       0.02          -          -          0          0
  actconsdiving    :       0.00       0.00          0          0          0
  adaptivediving   :       2.89       0.00         64          0          0
  alns             :       6.93       0.00          8          1          1
  bound            :       0.00       0.00          0          0          0
  clique           :       0.00       0.00          0          0          0
  coefdiving       :       0.00       0.00          0          0          0
  completesol      :       0.00       0.00          0          0          0
  conflictdiving   :      49.07       0.00        722          0          0
  crossover        :       0.00       0.00          0          0          0
  dins             :       0.00       0.00          0          0          0
  distributiondivin:     417.01       0.00       1038          0          0
  dps              :       0.00       0.00          0          0          0
  dualval          :       0.00       0.00          0          0          0
  farkasdiving     :       0.00       0.00          0          0          0
  feaspump         :       7.32       0.00         42          0          0
  fixandinfer      :       0.00       0.00          0          0          0
  fracdiving       :      66.99       0.00       1039          0          0
  gins             :       0.01       0.00          0          0          0
  guideddiving     :      64.69       0.00       1067          0          0
  indicator        :       0.13       0.00          0          0          0
  indicatordiving  :       0.00       0.00          0          0          0
  intdiving        :       0.00       0.00          0          0          0
  intshifting      :       1.29       0.00         44          0          0
  linesearchdiving :      55.60       0.00       1068          0          0
  localbranching   :       0.00       0.00          0          0          0
  locks            :       0.03       0.00          1          0          0
  lpface           :       0.00       0.00          0          0          0
  mpec             :       9.51       0.00          1          0          0
  multistart       :       0.00       0.00          0          0          0
  mutation         :       0.00       0.00          0          0          0
  nlpdiving        :       3.36       0.00          2          0          0
  objpscostdiving  :       3.17       0.00          6          0          0
  octane           :       0.00       0.00          0          0          0
  ofins            :       0.02       0.00          0          0          0
  oneopt           :       0.01       0.00          6          0          0
  padm             :       0.00       0.00          0          0          0
  proximity        :       0.00       0.00          0          0          0
  pscostdiving     :      80.46       0.00        915          0          0
  randrounding     :       0.78       0.00       1515          0          0
  rens             :       0.00       0.00          0          0          0
  reoptsols        :       0.00       0.00          0          0          0
  repair           :       0.00       0.00          0          0          0
  rins             :       0.00       0.00          0          0          0
  rootsoldiving    :       1.27       0.00         18          0          0
  rounding         :       0.85       0.00       5679          0          0
  shiftandpropagate:       0.02       0.00          1          0          0
  shifting         :       1.00       0.00       1325          0          0
  simplerounding   :       0.14       0.00          0          0          0
  subnlp           :       8.11       0.00         29          5          5
  trivial          :       0.00       0.00          2          0          0
  trivialnegation  :       0.00       0.00          0          0          0
  trustregion      :       0.00       0.00          0          0          0
  trysol           :       0.09       0.00          0          0          0
  twoopt           :       0.00       0.00          0          0          0
  undercover       :       0.22       0.00          1          0          0
  vbounds          :       0.00       0.00          0          0          0
  veclendiving     :      39.28       0.00       1105          0          0
  zeroobj          :       0.00       0.00          0          0          0
  zirounding       :       0.05       0.00       1000          0          0
  other solutions  :          -          -          -          0          -
Diving (single)    :      Calls      Nodes   LP Iters Backtracks  Conflicts   MinDepth   MaxDepth   AvgDepth  RoundSols  NLeafSols  MinSolDpt  MaxSolDpt  AvgSolDpt
  actconsdiving    :          0          -          -          -          -          -          -          -          -          -          -          -          -
  coefdiving       :          0          -          -          -          -          -          -          -          -          -          -          -          -
  conflictdiving   :        722      18673     504687         86         49         27         45       39.3          0          -          -          -          -
  distributiondivin:       1038      17840     642173        114         65         16         45       32.0          0          -          -          -          -
  farkasdiving     :          0          -          -          -          -          -          -          -          -          -          -          -          -
  fracdiving       :       1039      29553     626397          6          5         32         45       43.5          0          -          -          -          -
  guideddiving     :       1067      25044     572785         32         11         27         45       41.0          0          -          -          -          -
  indicatordiving  :          0          -          -          -          -          -          -          -          -          -          -          -          -
  linesearchdiving :       1068      21940     500553          7          3         28         45       37.1          0          -          -          -          -
  pscostdiving     :        915      27227     715514          4          2         36         45       44.2          0          -          -          -          -
  veclendiving     :       1105       8281     392025         12          8         15         29       22.5          0          -          -          -          -
Diving (adaptive)  :      Calls      Nodes   LP Iters Backtracks  Conflicts   MinDepth   MaxDepth   AvgDepth  RoundSols  NLeafSols  MinSolDpt  MaxSolDpt  AvgSolDpt
  actconsdiving    :         28        211      13788          3          2         16         28       22.0          0          -          -          -          -
  coefdiving       :         19        147       6839          2          0         19         28       22.6          0          -          -          -          -
  conflictdiving   :          0          -          -          -          -          -          -          -          -          -          -          -          -
  distributiondivin:          0          -          -          -          -          -          -          -          -          -          -          -          -
  farkasdiving     :          0          -          -          -          -          -          -          -          -          -          -          -          -
  fracdiving       :          1         26        549          0          0         41         41       41.0          0          -          -          -          -
  guideddiving     :          1         32        588          0          0         44         44       44.0          0          -          -          -          -
  indicatordiving  :          0          -          -          -          -          -          -          -          -          -          -          -          -
  linesearchdiving :          2         39        986          0          0         35         39       37.0          0          -          -          -          -
  pscostdiving     :          2         71       1812          0          0         45         45       45.0          0          -          -          -          -
  veclendiving     :         11         94       4321          0          0         16         24       19.6          0          -          -          -          -
Neighborhoods      :      Calls  SetupTime  SolveTime SolveNodes       Sols       Best       Exp3  EpsGreedy        UCB TgtFixRate  Opt  Inf Node Stal  Sol  Usr Othr Actv
  rens             :          1       0.01       0.01          0          0          0    0.00000   -1.00000    0.55929      0.700    0    1    0    0    0    0    0    1
  rins             :          1       0.02       0.93         19          0          0    0.00000   -1.00000    0.53818      0.700    0    1    0    0    0    0    0    1
  mutation         :          1       0.01       1.00          7          1          1    0.00000   -1.00000    0.95863      0.700    1    0    0    0    0    0    0    1
  localbranching   :          1       0.01       1.69          9          0          0    0.00000   -1.00000    0.54929      0.700    0    1    0    0    0    0    0    1
  crossover        :          1       0.01       0.92         17          0          0    0.00000   -1.00000    0.54040      0.700    0    1    0    0    0    0    0    1
  proximity        :          1       0.02       1.15         19          0          0    0.00000   -1.00000    0.53818      0.700    0    1    0    0    0    0    0    1
  zeroobjective    :          1       0.01       0.00          0          0          0    0.00000   -1.00000    0.05929      0.900    0    0    0    0    0    0    1    1
  dins             :          1       0.01       1.09         19          0          0    0.00000   -1.00000    0.53818      0.700    0    1    0    0    0    0    0    1
  trustregion      :          0       0.00       0.00          0          0          0    0.00000   -1.00000    1.00000      0.900    0    0    0    0    0    0    0    0
Expressions        :   #IntEval  IntEvalTi   #RevProp  RevPropTi    DomReds    Cutoffs  #Estimate  EstimTime  Branching  #Simplify SimplifyTi Simplified
  pow              :   10438486       2.77    3318317       1.25    5884239          0        917       0.00          0       1071       0.00          0
  prod             :    8812755       3.25      82883       0.41        209          0          0       0.00          0        812       0.00        405
  sum              :    9786062       3.17    6011564       2.88     389793         14         82       0.00          0       1055       0.00         82
  var              :   23930511       6.67          0       0.00          0          0          0       0.00          0       2854       0.00          0
  varidx           :          0       0.00          0       0.00          0          0          0       0.00          0          0       0.00          0
Nonlinear Conshdlr :   WeakSepa  TightenLP DespTghtLP DespBranch DespCutoff    ForceLP  CanonTime
  enforce          :          0          0          0          0          0          0
  presolve         :                                                                         0.09
Nlhdlrs            :    Detects  DetectAll DetectTime   #IntEval  IntEvalTi   #RevProp  RevPropTi    DomReds    Cutoffs   #Enforce   EnfoTime       Cuts  Branching
  soc              :        405        405       0.00          0       0.00          0       0.00          0          0   22191913      52.55    4429141          0
  convex           :          1          1       0.00          0       0.00          0       0.00          0          0     148406       0.74     148405          0
  concave          :          0          0       0.02          0       0.00          0       0.00          0          0          0       0.00          0          0
  quotient         :          0          0       0.00          0       0.00          0       0.00          0          0          0       0.00          0          0
  quadratic        :          0          0       0.01          0       0.00          0       0.00          0          0          0       0.00          0          0
  default          :       2415      12075       0.00   29035281      23.42    9415845      22.81    6274241         14        999       0.00        836          0
  bilinear         :          0          0       0.00          0       0.00          0       0.00          0          0          0       0.00          0          0
  perspective      :          0          0       0.00          0       0.00          0       0.00          0          0          0       0.00          0          0
LP                 :       Time      Calls Iterations  Iter/call   Iter/sec  Time-0-It Calls-0-It    ItLimit
  primal LP        :     402.54      21156          4       1.00       0.01     402.36      21152
  dual LP          :    1992.80     167800   17338799     103.42    8700.72       0.02        152
  lex dual LP      :       0.00          0          0       0.00          -
  barrier LP       :       0.00          0          0       0.00          -       0.00          0
  resolve instable :       0.00          0          0       0.00          -
  diving/probing LP:     304.88      31835    4068302     127.79   13343.95
  strong branching :      11.47        618     102398     165.69    8927.46          -          -         92
    (at root node) :          -         24        425      17.71          -
  conflict analysis:       0.30        405       3399       8.39   11330.00
NLP relaxation     :
  solve time       :       3.33 (13 calls)
  convexity        :  nonconvex (65 linear rows, 82 convex ineq., 405 nonconvex ineq., 0 nonlinear eq. or two-sided ineq.)
NLP Solvers        :  #Problems  ProblemTi    #Solves  SolveTime      #Iter  Time/Iter      #Okay #TimeLimit #IterLimit #LObjLimit #Interrupt  #NumError #EvalError  #OutOfMem #LicenseEr #OtherTerm   #GlobOpt    #LocOpt  #Feasible #LocInfeas #GlobInfea #Unbounded   #Unknown
  ipopt            :         31       9.12         44      19.45       1991       0.01         35          0          9          0          0          0          0          0          0          0          0         15          2         19          0          0          8
B&B Tree           :
  number of runs   :          1
  nodes            :      19214 (19213 internal, 1 leaves)
  feasible leaves  :          0
  infeas. leaves   :          0
  objective leaves :          0
  nodes (total)    :      19214 (19213 internal, 1 leaves)
  nodes left       :      19214
  max depth        :         23
  max depth (total):         23
  backtracks       :       7449 (38.8%)
  early backtracks :          0 (0.0%)
  nodes exc. ref.  :          0 (0.0%)
  delayed cutoffs  :          0
  repropagations   :         10 (0 domain reductions, 0 cutoffs)
  avg switch length:       8.96
  switching time   :     379.45
Estim. Tree Size   :         -1
Estimation Tree    : 38427 nodes (19213 visited, 19213 internal, 0 leaves, 19214 open), weight: 0.0000 completed 0.0774
Estimations        :      estim      value      trend resolution     smooth
  wbe              :         -1          -          -          -          -
  tree-profile     :         -1          -          -          -          -
  gap              :         -1    0.88117                     1           
  tree-weight      :         -1    0.00000                     1           
  leaf-frequency   :         -1   -0.00003                     1           
  ssg              :         -1    0.87774                     1           
  open-nodes       :         -1 19214.00000                     1           
Root Node          :
  First LP value   : -2.66231352380356e+00
  First LP Iters   :       1570 (39250.00 Iter/sec)
  First LP Time    :       0.04
  Final Dual Bound : -2.23736933887723e+00
  Final Root Iters :      10630
  Root LP Estimate : -2.04644365445002e+00
Solution           :
  Solutions found  :          6 (6 improvements)
  First Solution   : -1.53746551583502e+00   (in run 1, after 1 nodes, 0.71 seconds, depth 0, found by <locks>)
  Gap First Sol.   :      73.16 %
  Gap Last Sol.    :      13.57 %
  Primal Bound     : -1.89290995662991e+00   (in run 1, after 16736 nodes, 3069.63 seconds, depth 20, found by <alns>)
  Dual Bound       : -2.14818712904654e+00
  Gap              :      13.49 %
Integrals          :      Total       Avg%
  primal-dual      :   48309.08      13.42
  primal-ref       :          -          - (not evaluated)
  dual-ref         :          -          - (not evaluated)
